\ Model Sub model
\ LP format - for model browsing. Use MPS format to capture full model detail.
Minimize
  eta
Subject To
 eta=sumL: - L3[0] - L3[1] - L3[2] - L3[3] - L3[4] + eta = 0
 beta[0,0]: 953.4541277437199 v[0,0,1] + 1404.160031049124 v[0,0,2] - L3[0]
   <= 0
 beta[0,1]: 2845.439096760365 v[0,1,0] + 1146.728484064145 v[0,1,2] - L3[0]
   <= 0
 beta[0,2]: 1448.520976706814 v[0,2,0] + 1415.516173907933 v[0,2,1] - L3[0]
   <= 0
 beta[1,0]: 1354.575646661984 v[1,0,1] + 674.9526345056551 v[1,0,2] - L3[1]
   <= 0
 beta[1,1]: 3237.070127837361 v[1,1,0] + 1136.697647968724 v[1,1,2] - L3[1]
   <= 0
 beta[1,2]: 1604.486166136705 v[1,2,0] + 424.9126524249942 v[1,2,1] - L3[1]
   <= 0
 beta[2,0]: 2548.986730219688 v[2,0,1] + 1245.0808459123 v[2,0,2] - L3[2]
   <= 0
 beta[2,1]: 1655.574300030906 v[2,1,0] + 1052.321381855422 v[2,1,2] - L3[2]
   <= 0
 beta[2,2]: 1714.462104021885 v[2,2,0] + 764.8099703740993 v[2,2,1] - L3[2]
   <= 0
 beta[3,0]: 2368.308612056128 v[3,0,1] + 1071.664039645182 v[3,0,2] - L3[3]
   <= 0
 beta[3,1]: 3052.153565511086 v[3,1,0] + 1153.920675115055 v[3,1,2] - L3[3]
   <= 0
 beta[3,2]: 3543.093466389251 v[3,2,0] + 1320.25549035079 v[3,2,1] - L3[3]
   <= 0
 beta[4,0]: 1949.20918877854 v[4,0,1] + 1033.118386413911 v[4,0,2] - L3[4]
   <= 0
 beta[4,1]: 2359.564703667265 v[4,1,0] + 2485.791828834007 v[4,1,2] - L3[4]
   <= 0
 beta[4,2]: 2662.107571146714 v[4,2,0] + 952.7311255534034 v[4,2,1] - L3[4]
   <= 0
 gamma[0,0,0]: v[0,0,0] - u[0,0] <= 0
 gamma[0,0,1]: v[0,0,1] - u[0,1] <= 1
 gamma[0,0,2]: v[0,0,2] - u[0,2] <= 0
 gamma[0,1,0]: v[0,1,0] - u[0,0] <= 0
 gamma[0,1,1]: v[0,1,1] - u[0,1] <= 1
 gamma[0,1,2]: v[0,1,2] - u[0,2] <= 0
 gamma[0,2,0]: v[0,2,0] - u[0,0] <= 0
 gamma[0,2,1]: v[0,2,1] - u[0,1] <= 1
 gamma[0,2,2]: v[0,2,2] - u[0,2] <= 0
 gamma[1,0,0]: v[1,0,0] - u[1,0] <= 0
 gamma[1,0,1]: v[1,0,1] - u[1,1] <= 1
 gamma[1,0,2]: v[1,0,2] - u[1,2] <= 0
 gamma[1,1,0]: v[1,1,0] - u[1,0] <= 0
 gamma[1,1,1]: v[1,1,1] - u[1,1] <= 1
 gamma[1,1,2]: v[1,1,2] - u[1,2] <= 0
 gamma[1,2,0]: v[1,2,0] - u[1,0] <= 0
 gamma[1,2,1]: v[1,2,1] - u[1,1] <= 1
 gamma[1,2,2]: v[1,2,2] - u[1,2] <= 0
 gamma[2,0,0]: v[2,0,0] - u[2,0] <= 0
 gamma[2,0,1]: v[2,0,1] - u[2,1] <= 1
 gamma[2,0,2]: v[2,0,2] - u[2,2] <= 0
 gamma[2,1,0]: v[2,1,0] - u[2,0] <= 0
 gamma[2,1,1]: v[2,1,1] - u[2,1] <= 1
 gamma[2,1,2]: v[2,1,2] - u[2,2] <= 0
 gamma[2,2,0]: v[2,2,0] - u[2,0] <= 0
 gamma[2,2,1]: v[2,2,1] - u[2,1] <= 1
 gamma[2,2,2]: v[2,2,2] - u[2,2] <= 0
 gamma[3,0,0]: v[3,0,0] - u[3,0] <= 0
 gamma[3,0,1]: v[3,0,1] - u[3,1] <= 1
 gamma[3,0,2]: v[3,0,2] - u[3,2] <= 0
 gamma[3,1,0]: v[3,1,0] - u[3,0] <= 0
 gamma[3,1,1]: v[3,1,1] - u[3,1] <= 1
 gamma[3,1,2]: v[3,1,2] - u[3,2] <= 0
 gamma[3,2,0]: v[3,2,0] - u[3,0] <= 0
 gamma[3,2,1]: v[3,2,1] - u[3,1] <= 1
 gamma[3,2,2]: v[3,2,2] - u[3,2] <= 0
 gamma[4,0,0]: v[4,0,0] - u[4,0] <= 0
 gamma[4,0,1]: v[4,0,1] - u[4,1] <= 1
 gamma[4,0,2]: v[4,0,2] - u[4,2] <= 0
 gamma[4,1,0]: v[4,1,0] - u[4,0] <= 0
 gamma[4,1,1]: v[4,1,1] - u[4,1] <= 1
 gamma[4,1,2]: v[4,1,2] - u[4,2] <= 0
 gamma[4,2,0]: v[4,2,0] - u[4,0] <= 0
 gamma[4,2,1]: v[4,2,1] - u[4,1] <= 1
 gamma[4,2,2]: v[4,2,2] - u[4,2] <= 0
 delta[0,0,0]: v[0,0,0] <= 0
 delta[0,0,1]: v[0,0,1] <= 1
 delta[0,0,2]: v[0,0,2] <= 1
 delta[0,1,0]: v[0,1,0] <= 0
 delta[0,1,1]: v[0,1,1] <= 1
 delta[0,1,2]: v[0,1,2] <= 1
 delta[0,2,0]: v[0,2,0] <= 0
 delta[0,2,1]: v[0,2,1] <= 1
 delta[0,2,2]: v[0,2,2] <= 1
 delta[1,0,0]: v[1,0,0] <= 0
 delta[1,0,1]: v[1,0,1] <= 1
 delta[1,0,2]: v[1,0,2] <= 1
 delta[1,1,0]: v[1,1,0] <= 0
 delta[1,1,1]: v[1,1,1] <= 1
 delta[1,1,2]: v[1,1,2] <= 1
 delta[1,2,0]: v[1,2,0] <= 0
 delta[1,2,1]: v[1,2,1] <= 1
 delta[1,2,2]: v[1,2,2] <= 1
 delta[2,0,0]: v[2,0,0] <= 0
 delta[2,0,1]: v[2,0,1] <= 1
 delta[2,0,2]: v[2,0,2] <= 1
 delta[2,1,0]: v[2,1,0] <= 0
 delta[2,1,1]: v[2,1,1] <= 1
 delta[2,1,2]: v[2,1,2] <= 1
 delta[2,2,0]: v[2,2,0] <= 0
 delta[2,2,1]: v[2,2,1] <= 1
 delta[2,2,2]: v[2,2,2] <= 1
 delta[3,0,0]: v[3,0,0] <= 1
 delta[3,0,1]: v[3,0,1] <= 0
 delta[3,0,2]: v[3,0,2] <= 1
 delta[3,1,0]: v[3,1,0] <= 1
 delta[3,1,1]: v[3,1,1] <= 0
 delta[3,1,2]: v[3,1,2] <= 1
 delta[3,2,0]: v[3,2,0] <= 1
 delta[3,2,1]: v[3,2,1] <= 0
 delta[3,2,2]: v[3,2,2] <= 1
 delta[4,0,0]: v[4,0,0] <= 0
 delta[4,0,1]: v[4,0,1] <= 1
 delta[4,0,2]: v[4,0,2] <= 1
 delta[4,1,0]: v[4,1,0] <= 0
 delta[4,1,1]: v[4,1,1] <= 1
 delta[4,1,2]: v[4,1,2] <= 1
 delta[4,2,0]: v[4,2,0] <= 0
 delta[4,2,1]: v[4,2,1] <= 1
 delta[4,2,2]: v[4,2,2] <= 1
 epsilon[0,0]: v[0,0,0] + v[0,0,1] + v[0,0,2] = 1
 epsilon[0,1]: v[0,1,0] + v[0,1,1] + v[0,1,2] = 1
 epsilon[0,2]: v[0,2,0] + v[0,2,1] + v[0,2,2] = 1
 epsilon[1,0]: v[1,0,0] + v[1,0,1] + v[1,0,2] = 1
 epsilon[1,1]: v[1,1,0] + v[1,1,1] + v[1,1,2] = 1
 epsilon[1,2]: v[1,2,0] + v[1,2,1] + v[1,2,2] = 1
 epsilon[2,0]: v[2,0,0] + v[2,0,1] + v[2,0,2] = 1
 epsilon[2,1]: v[2,1,0] + v[2,1,1] + v[2,1,2] = 1
 epsilon[2,2]: v[2,2,0] + v[2,2,1] + v[2,2,2] = 1
 epsilon[3,0]: v[3,0,0] + v[3,0,1] + v[3,0,2] = 1
 epsilon[3,1]: v[3,1,0] + v[3,1,1] + v[3,1,2] = 1
 epsilon[3,2]: v[3,2,0] + v[3,2,1] + v[3,2,2] = 1
 epsilon[4,0]: v[4,0,0] + v[4,0,1] + v[4,0,2] = 1
 epsilon[4,1]: v[4,1,0] + v[4,1,1] + v[4,1,2] = 1
 epsilon[4,2]: v[4,2,0] + v[4,2,1] + v[4,2,2] = 1
 lamda[0,0]: u[0,0] <= 1
 lamda[0,1]: u[0,1] <= 0
 lamda[0,2]: u[0,2] <= 1
 lamda[1,0]: u[1,0] <= 1
 lamda[1,1]: u[1,1] <= 0
 lamda[1,2]: u[1,2] <= 1
 lamda[2,0]: u[2,0] <= 1
 lamda[2,1]: u[2,1] <= 0
 lamda[2,2]: u[2,2] <= 1
 lamda[3,0]: u[3,0] <= 1
 lamda[3,1]: u[3,1] <= 0
 lamda[3,2]: u[3,2] <= 1
 lamda[4,0]: u[4,0] <= 1
 lamda[4,1]: u[4,1] <= 0
 lamda[4,2]: u[4,2] <= 1
 mu[0,0]: u[0,0] <= 0
 mu[0,1]: u[0,1] <= 1
 mu[0,2]: u[0,2] <= 1
 mu[1,0]: u[1,0] <= 0
 mu[1,1]: u[1,1] <= 1
 mu[1,2]: u[1,2] <= 1
 mu[2,0]: u[2,0] <= 0
 mu[2,1]: u[2,1] <= 1
 mu[2,2]: u[2,2] <= 1
 mu[3,0]: u[3,0] <= 1
 mu[3,1]: u[3,1] <= 0
 mu[3,2]: u[3,2] <= 1
 mu[4,0]: u[4,0] <= 0
 mu[4,1]: u[4,1] <= 1
 mu[4,2]: u[4,2] <= 1
 nu[0]: u[0,0] + u[0,1] + u[0,2] = 0
 nu[1]: u[1,0] + u[1,1] + u[1,2] = 0
 nu[2]: u[2,0] + u[2,1] + u[2,2] = 0
 nu[3]: u[3,0] + u[3,1] + u[3,2] = 1
 nu[4]: u[4,0] + u[4,1] + u[4,2] = 0
Bounds
End
